outputs/case_350.model.txt
not_proactively_disclose = False
internal_control_and_audit_ok = True
internal_handling_system_established = True
violate_148_3_2 = False
internal_handling_ok = True
report_or_disclosure_false = False
not_report_to_authority_in_time = False
internal_control_executed = True
violate_148_1_1 = False
not_provide_explanation_doc = False
violate_148_2_2 = False
violate_148_2_1 = False
penalty = False
internal_handling_system_executed = True
audit_system_executed = True
violate_148_1_2 = False
internal_control_established = True
violate_148_3_1 = False
audit_system_established = True
explanation_doc_not_according_to_rule = False
explanation_doc_false = False